200
[22,25,26,27,28,31,32,33,34,35,39,40,41,42,43,44,46,47,49,50,51,53,54,56,57,59,60,61,62,63,66,70,71,74,75,76,78,79,80,85,89,91,92,93,94,95,99,100,101,102,105,106,108,110,112,113,115,116,120,124,126,127,128,129,135,136,139,140,141,143,147,149,150,151,154,155,157,159,160]
[1,1,1,1,1,1,1,2,1,1,1,1,1,1,2,2,1,1,1,1,1,1,2,2,2,2,2,2,1,1,2,1,1,1,1,2,2,2,1,1,1,1,1,1,1,1,1,1,1,1,1,1,1,2,1,1,1,1,2,1,2,1,1,1,1,1,1,1,3,1,2,1,2,1,1,1,1,1,2]
